1654063200
1654092000
1654149600
1654178400
1654236000
1654264800
1654264800
1654272000
1654581600
1654610400
1654668000
1654696800
1654754400
1654783200
1654840800
1654869600
1654869600
1654876800
1655100000
1655128800
1655186400
1655215200
1655272800
1655301600
1655301600
1655308800
1655359200
1655388000
1655388000
1655391600
1655445600
1655474400
1655474400
1655481600
1655704800
1655733600
1655791200
1655820000
1655877600
1655906400
1655964000
1655992800
1656050400
1656079200
1656309600
1656338400
1656342000
1656345600
1656396000
1656424800
1656482400
1656511200
1656568800
1656590400
